Minimize
  - 20 y_0 - 27 y_1 - 15 y_2 - 26 y_3 - 21 y_4 - 13 y_5 - 28 y_6 - 8 y_7
   - y_9 - 26 y_10 - 9 y_11 - 9 y_12 - 28 y_13 - 27 y_14 - 27 y_15
   - 28 y_16 - 29 y_17 - 27 y_18 - 33 y_19 + 68 x_0_1 + 58 x_0_2 + 47 x_0_3
   + 16 x_0_6 + 52 x_0_7 + 41 x_0_8 + 42 x_0_9 + 78 x_0_10 + 56 x_0_12
   + 91 x_0_13 + 15 x_0_14 + 70 x_0_16 + 85 x_0_18 + 82 x_1_2 + 28 x_1_5
   + 40 x_1_7 + 54 x_1_9 + 22 x_1_10 + 35 x_1_11 + 35 x_1_15 + 60 x_1_17
   + 35 x_1_18 + 81 x_2_3 + 38 x_2_4 + 54 x_2_5 + 42 x_2_7 + 30 x_2_9
   + 47 x_2_11 + 41 x_2_12 + 66 x_2_14 + 84 x_2_15 + 68 x_2_17 + 34 x_3_5
   + 60 x_3_6 + 38 x_3_11 + 51 x_3_12 + 7 x_3_15 + 29 x_3_16 + 38 x_4_7
   + 40 x_4_9 + 56 x_4_10 + 46 x_4_11 + 40 x_4_13 + 95 x_4_14 + 75 x_4_16
   + 32 x_4_17 + 48 x_4_18 + 66 x_5_6 + 26 x_5_9 + 29 x_5_10 + 43 x_5_13
   + 65 x_5_14 + 31 x_5_16 + 68 x_6_7 + 56 x_6_8 + 63 x_6_11 + 2 x_6_14
   + 113 x_6_17 + 101 x_6_18 + 10 x_6_19 + 16 x_7_9 + 35 x_7_10 + 40 x_7_13
   + 66 x_7_14 + 51 x_7_15 + 43 x_7_16 + 37 x_7_18 + 77 x_7_19 + 51 x_8_10
   + 19 x_8_11 + 19 x_8_12 + 54 x_8_14 + 51 x_9_10 + 55 x_9_15 + 57 x_9_17
   + 67 x_9_19 + 26 x_10_13 + 93 x_10_14 + 23 x_10_16 + 101 x_10_19
   + 62 x_11_14 + 43 x_11_15 + 38 x_11_18 + 72 x_11_19 + 70 x_12_14
   + 46 x_12_16 + 41 x_12_17 + 77 x_13_15 + 13 x_13_18 + 116 x_13_19
   + 111 x_14_17 + 36 x_15_16 + 59 x_15_19 + 36 x_16_18 + 91 x_16_19
   + 91 x_16_19 + 91 x_16_19 + 91 x_16_19 + 91 x_16_19 + 91 x_16_19
   + 91 x_16_19 + 91 x_16_19 + 91 x_16_19 + 91 x_16_19 + 91 x_16_19
   + 91 x_16_19 + 91 x_16_19 + 91 x_16_19 + 91 x_16_19 + 91 x_16_19
   + 91 x_16_19 + 91 x_16_19 + 91 x_16_19 + 91 x_16_19 + 91 x_16_19
   + 91 x_16_19 + 91 x_16_19 + 91 x_16_19 + 91 x_16_19 + 91 x_16_19
   + 91 x_16_19 + 91 x_16_19 + 91 x_16_19 + 91 x_16_19 + 91 x_16_19
   + 91 x_16_19 + 91 x_16_19 + 91 x_16_19 + 91 x_16_19 + 91 x_16_19
   + 91 x_16_19 + 91 x_16_19 + 91 x_16_19 + 91 x_16_19 + 91 x_16_19
   + 91 x_16_19 + 91 x_16_19 + 91 x_16_19 + 91 x_16_19 + 91 x_16_19
   + 91 x_16_19 + 91 x_16_19 + 91 x_16_19 + 91 x_16_19 + 91 x_16_19
   + 91 x_16_19 + 91 x_16_19 + 91 x_16_19 + 91 x_16_19 + 91 x_16_19
   + 91 x_16_19 + 91 x_16_19 + 91 x_16_19 + 91 x_16_19 + 91 x_16_19
   + 91 x_16_19 + 91 x_16_19 + 91 x_16_19 + 91 x_16_19 + 91 x_16_19
   + 91 x_16_19 + 91 x_16_19 + 91 x_16_19 + 91 x_16_19 + 91 x_16_19
   + 91 x_16_19 + 91 x_16_19 + 91 x_16_19 + 91 x_16_19 + 91 x_16_19
   + 91 x_16_19 + 91 x_16_19 + 91 x_16_19 + 91 x_16_19 + 91 x_16_19
   + 91 x_16_19 + 91 x_16_19 + 91 x_16_19 + 91 x_16_19 + 91 x_16_19
   + 91 x_16_19 + 91 x_16_19 + 91 x_16_19 + 91 x_16_19 + 91 x_16_19
   + 91 x_16_19 + 91 x_16_19 + 91 x_16_19 + 91 x_16_19 + 91 x_16_19
   + 91 x_16_19 + 91 x_16_19 + 91 x_16_19 + 91 x_16_19 + 91 x_16_19
   + 91 x_16_19 + 91 x_16_19 + 91 x_16_19 + 91 x_16_19 + 91 x_16_19
   + 91 x_16_19 + 91 x_16_19 + 91 x_16_19 + 91 x_16_19 + 91 x_16_19
   + 91 x_16_19 + 91 x_16_19 + 91 x_16_19 + 91 x_16_19 + 91 x_16_19
   + 91 x_16_19 + 91 x_16_19 + 91 x_16_19 + 91 x_16_19 + 91 x_16_19
   + 91 x_16_19 + 91 x_16_19 + 91 x_16_19 + 91 x_16_19 + 91 x_16_19
   + 91 x_16_19 + 91 x_16_19 + 91 x_16_19 + 91 x_16_19 + 91 x_16_19
   + 91 x_16_19 + 91 x_16_19 + 91 x_16_19 + 91 x_16_19 + 91 x_16_19
   + 91 x_16_19 + 91 x_16_19 + 91 x_16_19 + 91 x_16_19 + 91 x_16_19
   + 91 x_16_19 + 91 x_16_19 + 91 x_16_19 + 91 x_16_19 + 91 x_16_19
   + 91 x_16_19 + 91 x_16_19 + 91 x_16_19 + 91 x_16_19 + 91 x_16_19
   + 91 x_16_19 + 91 x_16_19 + 91 x_16_19 + 91 x_16_19 + 91 x_16_19
   + 91 x_16_19 + 91 x_16_19 + 91 x_16_19 + 91 x_16_19 + 91 x_16_19
   + 91 x_16_19 + 91 x_16_19 + 91 x_16_19 + 91 x_16_19 + 91 x_16_19
   + 91 x_16_19 + 91 x_16_19 + 91 x_16_19 + 91 x_16_19 + 91 x_16_19
   + 91 x_16_19 + 91 x_16_19 + 91 x_16_19 + 91 x_16_19 + 91 x_16_19
   + 91 x_16_19 + 91 x_16_19 + 91 x_16_19 + 91 x_16_19 + 91 x_16_19
   + 91 x_16_19 + 91 x_16_19 + 91 x_16_19 + 91 x_16_19 + 91 x_16_19
   + 91 x_16_19 + 91 x_16_19 + 91 x_16_19 + 91 x_16_19 + 91 x_16_19
   + 91 x_16_19 + 91 x_16_19 + 91 x_16_19 + 91 x_16_19 + 91 x_16_19
   + 91 x_16_19 + 91 x_16_19 + 91 x_16_19 + 91 x_16_19 + 91 x_16_19
   + 91 x_16_19 + 91 x_16_19 + 91 x_16_19 + 91 x_16_19 + 91 x_16_19
   + 91 x_16_19 + 91 x_16_19 + 91 x_16_19 + 91 x_16_19 + 91 x_16_19
   + 91 x_16_19 + 91 x_16_19 + 91 x_16_19 + 91 x_16_19 + 91 x_16_19
   + 91 x_16_19 + 91 x_16_19 + 91 x_16_19 + 91 x_16_19 + 91 x_16_19
   + 91 x_16_19 + 91 x_16_19 + 91 x_16_19 + 91 x_16_19 + 91 x_16_19
   + 91 x_16_19 + 91 x_16_19 + 91 x_16_19 + 91 x_16_19 + 91 x_16_19
   + 91 x_16_19 + 91 x_16_19 + 91 x_16_19 + 91 x_16_19 + 91 x_16_19
   + 91 x_16_19 + 91 x_16_19 + 91 x_16_19 + 91 x_16_19 + 91 x_16_19
   + 91 x_16_19 + 91 x_16_19 + 91 x_16_19 + 91 x_16_19 + 91 x_16_19
   + 91 x_16_19 + 91 x_16_19 + 91 x_16_19 + 91 x_16_19 + 91 x_16_19
   + 91 x_16_19 + 91 x_16_19 + 91 x_16_19 + 91 x_16_19 + 91 x_16_19
   + 91 x_16_19 + 91 x_16_19 + 91 x_16_19 + 91 x_16_19 + 91 x_16_19
   + 91 x_16_19 + 91 x_16_19 + 91 x_16_19 + 91 x_16_19 + 91 x_16_19
   + 91 x_16_19 + 91 x_16_19 + 91 x_16_19 + 91 x_16_19 + 91 x_16_19
   + 91 x_16_19 + 91 x_16_19 + 91 x_16_19 + 91 x_16_19 + 91 x_16_19
   + 91 x_16_19 + 91 x_16_19 + 91 x_16_19 + 91 x_16_19 + 91 x_16_19
   + 91 x_16_19 + 91 x_16_19 + 91 x_16_19 + 91 x_16_19 + 91 x_16_19
   + 91 x_16_19 + 91 x_16_19 + 91 x_16_19 + 91 x_16_19 + 91 x_16_19
   + 91 x_16_19 + 91 x_16_19 + 91 x_16_19 + 91 x_16_19 + 91 x_16_19
   + 91 x_16_19 + 91 x_16_19 + 91 x_16_19 + 91 x_16_19 + 91 x_16_19
   + 91 x_16_19 + 91 x_16_19 + 91 x_16_19 + 91 x_16_19 + 91 x_16_19
   + 91 x_16_19 + 91 x_16_19 + 91 x_16_19 + 91 x_16_19 + 91 x_16_19
   + 91 x_16_19 + 91 x_16_19 + 91 x_16_19 + 91 x_16_19 + 91 x_16_19
   + 91 x_16_19 + 91 x_16_19 + 91 x_16_19 + 91 x_16_19 + 91 x_16_19
   + 91 x_16_19 + 91 x_16_19 + 91 x_16_19 + 91 x_16_19 + 91 x_16_19
   + 91 x_16_19 + 91 x_16_19 + 91 x_16_19 + 91 x_16_19 + 91 x_16_19
   + 91 x_16_19 + 91 x_16_19 + 91 x_16_19 + 91 x_16_19 + 91 x_16_19
   + 91 x_16_19 + 91 x_16_19 + 91 x_16_19 + 91 x_16_19 + 91 x_16_19
   + 91 x_16_19 + 91 x_16_19 + 91 x_16_19 + 91 x_16_19 + 91 x_16_19
   + 91 x_16_19 + 91 x_16_19 + 91 x_16_19 + 91 x_16_19 + 91 x_16_19
   + 91 x_16_19 + 91 x_16_19 + 91 x_16_19 + 91 x_16_19 + 91 x_16_19
   + 91 x_16_19 + 91 x_16_19 + 91 x_16_19 + 91 x_16_19 + 91 x_16_19
   + 91 x_16_19 + 91 x_16_19 + 91 x_16_19 + 91 x_16_19 + 91 x_16_19
   + 91 x_16_19 + 91 x_16_19 + 91 x_16_19 + 91 x_16_19 + 91 x_16_19
   + 91 x_16_19 + 91 x_16_19 + 91 x_16_19 + 91 x_16_19 + 91 x_16_19
   + 91 x_16_19 + 91 x_16_19 + 91 x_16_19 + 91 x_16_19 + 91 x_16_19
   + 91 x_16_19 + 91 x_16_19 + 91 x_16_19 + 91 x_16_19 + 91 x_16_19
   + 91 x_16_19 + 91 x_16_19 + 91 x_16_19 + 91 x_16_19 + 91 x_16_19
   + 91 x_16_19 + 91 x_16_19 + 91 x_16_19 + 91 x_16_19 + 91 x_16_19
   + 91 x_16_19 + 91 x_16_19 + 91 x_16_19 + 91 x_16_19 + 91 x_16_19
   + 91 x_16_19 + 91 x_16_19 + 91 x_16_19 + 91 x_16_19 + 91 x_16_19
   + 91 x_16_19 + 91 x_16_19 + 91 x_16_19 + 91 x_16_19 + 91 x_16_19
   + 91 x_16_19 + 91 x_16_19 + 91 x_16_19 + 91 x_16_19 + 91 x_16_19
   + 91 x_16_19 + 91 x_16_19 + 91 x_16_19 + 91 x_16_19 + 91 x_16_19
   + 91 x_16_19 + 91 x_16_19 + 91 x_16_19 + 91 x_16_19 + 91 x_16_19
   + 91 x_16_19 + 91 x_16_19 + 91 x_16_19 + 91 x_16_19 + 91 x_16_19
   + 91 x_16_19 + 91 x_16_19 + 91 x_16_19 + 91 x_16_19 + 91 x_16_19
   + 91 x_16_19 + 91 x_16_19 + 91 x_16_19 + 91 x_16_19 + 91 x_16_19
   + 91 x_16_19 + 91 x_16_19 + 91 x_16_19 + 91 x_16_19 + 91 x_16_19
   + 91 x_16_19 + 91 x_16_19 + 91 x_16_19 + 91 x_16_19 + 91 x_16_19
   + 91 x_16_19 + 91 x_16_19 + 91 x_16_19 + 91 x_16_19 + 91 x_16_19
   + 91 x_16_19 + 91 x_16_19 + 91 x_16_19 + 91 x_16_19 + 91 x_16_19
   + 91 x_16_19 + 91 x_16_19 + 91 x_16_19 + 91 x_16_19 + 91 x_16_19
   + 91 x_16_19 + 91 x_16_19 + 91 x_16_19 + 91 x_16_19 + 91 x_16_19
   + 91 x_16_19 + 91 x_16_19 + 91 x_16_19 + 91 x_16_19 + 91 x_16_19
   + 91 x_16_19 + 91 x_16_19 + 91 x_16_19 + 91 x_16_19 + 91 x_16_19
   + 91 x_16_19 + 91 x_16_19 + 91 x_16_19 + 91 x_16_19 + 91 x_16_19
   + 91 x_16_19 + 91 x_16_19 + 91 x_16_19 + 91 x_16_19 + 91 x_16_19
   + 91 x_16_19 + 91 x_16_19 + 91 x_16_19 + 91 x_16_19 + 91 x_16_19
   + 91 x_16_19 + 91 x_16_19 + 91 x_16_19 + 91 x_16_19 + 91 x_16_19
   + 91 x_16_19 + 91 x_16_19 + 91 x_16_19 + 91 x_16_19 + 91 x_16_19
   + 91 x_16_19 + 91 x_16_19 + 91 x_16_19 + 91 x_16_19 + 91 x_16_19
   + 91 x_16_19 + 91 x_16_19 + 91 x_16_19 + 91 x_16_19 + 91 x_16_19
   + 91 x_16_19 + 91 x_16_19 + 91 x_16_19 + 91 x_16_19 + 91 x_16_19
   + 91 x_16_19 + 91 x_16_19 + 91 x_16_19 + 91 x_16_19 + 91 x_16_19
   + 91 x_16_19 + 91 x_16_19 + 91 x_16_19 + 91 x_16_19 + 91 x_16_19
   + 91 x_16_19 + 91 x_16_19 + 91 x_16_19 + 91 x_16_19 + 91 x_16_19
   + 91 x_16_19 + 91 x_16_19 + 91 x_16_19 + 91 x_16_19 + 91 x_16_19
   + 91 x_16_19 + 91 x_16_19 + 91 x_16_19 + 91 x_16_19 + 91 x_16_19
   + 91 x_16_19 + 91 x_16_19 + 91 x_16_19 + 91 x_16_19 + 91 x_16_19
   + 91 x_16_19 + 91 x_16_19 + 91 x_16_19 + 91 x_16_19 + 91 x_16_19
   + 91 x_16_19 + 91 x_16_19 + 91 x_16_19 + 91 x_16_19 + 91 x_16_19
   + 91 x_16_19 + 91 x_16_19 + 91 x_16_19 + 91 x_16_19 + 91 x_16_19
   + 91 x_16_19 + 91 x_16_19 + 91 x_16_19 + 91 x_16_19 + 91 x_16_19
   + 91 x_16_19 + 91 x_16_19 + 91 x_16_19 + 91 x_16_19 + 91 x_16_19
   + 91 x_16_19 + 91 x_16_19 + 91 x_16_19 + 91 x_16_19 + 91 x_16_19
   + 91 x_16_19 + 91 x_16_19 + 91 x_16_19 + 91 x_16_19 + 91 x_16_19
   + 91 x_16_19 + 91 x_16_19 + 91 x_16_19 + 91 x_16_19 + 91 x_16_19
   + 91 x_16_19 + 91 x_16_19 + 91 x_16_19 + 91 x_16_19 + 91 x_16_19
   + 91 x_16_19 + 91 x_16_19 + 91 x_16_19 + 91 x_16_19 + 91 x_16_19
   + 91 x_16_19 + 91 x_16_19 + 91 x_16_19 + 91 x_16_19 + 91 x_16_19
   + 91 x_16_19 + 91 x_16_19 + 91 x_16_19 + 91 x_16_19 + 91 x_16_19
   + 91 x_16_19 + 91 x_16_19 + 91 x_16_19 + 91 x_16_19 + 91 x_16_19
   + 91 x_16_19 + 91 x_16_19 + 91 x_16_19 + 91 x_16_19 + 91 x_16_19
   + 91 x_16_19 + 91 x_16_19 + 91 x_16_19 + 91 x_16_19 + 91 x_16_19
   + 91 x_16_19 + 91 x_16_19 + 91 x_16_19 + 91 x_16_19 + 91 x_16_19
   + 91 x_16_19 + 91 x_16_19 + 91 x_16_19 + 91 x_16_19 + 91 x_16_19
   + 91 x_16_19 + 91 x_16_19 + 91 x_16_19 + 91 x_16_19 + 91 x_16_19
   + 91 x_16_19 + 91 x_16_19 + 91 x_16_19 + 91 x_16_19 + 91 x_16_19
   + 91 x_16_19 + 91 x_16_19 + 91 x_16_19 + 91 x_16_19 + 91 x_16_19
   + 91 x_16_19 + 91 x_16_19 + 91 x_16_19 + 91 x_16_19 + 91 x_16_19
   + 91 x_16_19 + 91 x_16_19 + 91 x_16_19 + 91 x_16_19 + 91 x_16_19
   + 91 x_16_19 + 91 x_16_19 + 91 x_16_19 + 91 x_16_19 + 91 x_16_19
   + 91 x_16_19 + 91 x_16_19 + 91 x_16_19 + 91 x_16_19 + 91 x_16_19
   + 91 x_16_19 + 91 x_16_19 + 91 x_16_19 + 91 x_16_19 + 91 x_16_19
   + 91 x_16_19 + 91 x_16_19 + 91 x_16_19 + 91 x_16_19 + 91 x_16_19
   + 91 x_16_19 + 91 x_16_19 + 91 x_16_19 + 91 x_16_19 + 91 x_16_19
   + 91 x_16_19 + 91 x_16_19 + 91 x_16_19 + 91 x_16_19 + 91 x_16_19
   + 91 x_16_19 + 91 x_16_19 + 91 x_16_19 + 91 x_16_19 + 91 x_16_19
   + 91 x_16_19 + 91 x_16_19 + 91 x_16_19 + 91 x_16_19 + 91 x_16_19
   + 91 x_16_19 + 91 x_16_19 + 91 x_16_19 + 91 x_16_19 + 91 x_16_19
   + 91 x_16_19 + 91 x_16_19 + 91 x_16_19 + 91 x_16_19 + 91 x_16_19
   + 91 x_16_19 + 91 x_16_19 + 91 x_16_19 + 91 x_16_19 + 91 x_16_19
   + 91 x_16_19 + 91 x_16_19 + 91 x_16_19 + 91 x_16_19 + 91 x_16_19
   + 91 x_16_19 + 91 x_16_19 + 91 x_16_19 + 91 x_16_19 + 91 x_16_19
   + 91 x_16_19 + 91 x_16_19 + 91 x_16_19 + 91 x_16_19 + 91 x_16_19
   + 91 x_16_19 + 91 x_16_19 + 91 x_16_19 + 91 x_16_19 + 91 x_16_19
   + 91 x_16_19 + 91 x_16_19 + 91 x_16_19 + 91 x_16_19 + 91 x_16_19
   + 91 x_16_19 + 91 x_16_19 + 91 x_16_19 + 91 x_16_19 + 91 x_16_19
   + 91 x_16_19 + 91 x_16_19 + 91 x_16_19 + 91 x_16_19 + 91 x_16_19
   + 91 x_16_19 + 91 x_16_19 + 91 x_16_19 + 91 x_16_19 + 91 x_16_19
   + 91 x_16_19 + 91 x_16_19 + 91 x_16_19 + 91 x_16_19 + 91 x_16_19
   + 91 x_16_19 + 91 x_16_19 + 91 x_16_19 + 91 x_16_19 + 91 x_16_19
   + 91 x_16_19 + 91 x_16_19 + 91 x_16_19 + 91 x_16_19 + 91 x_16_19
   + 91 x_16_19 + 91 x_16_19 + 91 x_16_19 + 91 x_16_19 + 91 x_16_19
   + 91 x_16_19 + 91 x_16_19 + 91 x_16_19 + 91 x_16_19 + 91 x_16_19
   + 91 x_16_19 + 91 x_16_19 + 91 x_16_19 + 91 x_16_19 + 91 x_16_19
   + 91 x_16_19 + 91 x_16_19 + 91 x_16_19 + 91 x_16_19 + 91 x_16_19
   + 91 x_16_19 + 91 x_16_19 + 91 x_16_19 + 91 x_16_19 + 91 x_16_19
   + 91 x_16_19 + 91 x_16_19 + 91 x_16_19 + 91 x_16_19 + 91 x_16_19
   + 91 x_16_19 + 91 x_16_19 + 91 x_16_19 + 91 x_16_19 + 91 x_16_19
   + 91 x_16_19 + 91 x_16_19 + 91 x_16_19 + 91 x_16_19 + 91 x_16_19
   + 91 x_16_19 + 91 x_16_19 + 91 x_16_19 + 91 x_16_19 + 91 x_16_19
   + 91 x_16_19 + 91 x_16_19 + 91 x_16_19 + 91 x_16_19 + 91 x_16_19
   + 91 x_16_19 + 91 x_16_19 + 91 x_16_19 + 91 x_16_19 + 91 x_16_19
   + 91 x_16_19 + 91 x_16_19 + 91 x_16_19 + 91 x_16_19 + 91 x_16_19
   + 91 x_16_19 + 91 x_16_19 + 91 x_16_19 + 91 x_16_19 + 91 x_16_19
   + 91 x_16_19 + 91 x_16_19 + 91 x_16_19 + 91 x_16_19 + 91 x_16_19
   + 91 x_16_19 + 91 x_16_19 + 91 x_16_19 + 91 x_16_19 + 91 x_16_19
   + 91 x_16_19 + 91 x_16_19 + 91 x_16_19 + 91 x_16_19 + 91 x_16_19
   + 91 x_16_19 + 91 x_16_19 + 91 x_16_19 + 91 x_16_19 + 91 x_16_19
   + 91 x_16_19 + 91 x_16_19 + 91 x_16_19 + 91 x_16_19 + 91 x_16_19
   + 91 x_16_19 + 402 Constant
Subject To
 c_0: y_2 = 1
 c_1_0: y_0 >= 1
 c_1_1: y_1 + y_16 >= 1
 c_1_2: y_2 >= 1
 c_1_3: y_3 >= 1
 c_1_4: y_4 >= 1
 c_1_5: y_5 >= 1
 c_1_6: y_6 + y_14 >= 1
 c_1_7: y_7 + y_12 >= 1
 c_1_8: y_8 + y_9 >= 1
 c_1_9: y_8 + y_9 >= 1
 c_1_10: y_10 >= 1
 c_1_11: y_11 >= 1
 c_1_12: y_7 + y_12 >= 1
 c_1_13: y_13 >= 1
 c_1_14: y_6 + y_14 >= 1
 c_1_15: y_15 >= 1
 c_1_16: y_1 + y_16 >= 1
 c_1_17: y_17 >= 1
 c_1_18: y_18 >= 1
 c_1_19: y_19 >= 1
 c_2_0: - 2 y_0 + x_0_1 + x_0_2 + x_0_3 + x_0_6 + x_0_7 + x_0_8 + x_0_9
   + x_0_10 + x_0_12 + x_0_13 + x_0_14 + x_0_16 + x_0_18 = 0
 c_2_1: - 2 y_1 + x_0_1 + x_1_2 + x_1_5 + x_1_7 + x_1_9 + x_1_10 + x_1_11
   + x_1_15 + x_1_17 + x_1_18 = 0
 c_2_2: - 2 y_2 + x_0_2 + x_1_2 + x_2_3 + x_2_4 + x_2_5 + x_2_7 + x_2_9
   + x_2_11 + x_2_12 + x_2_14 + x_2_15 + x_2_17 = 0
 c_2_3: - 2 y_3 + x_0_3 + x_2_3 + x_3_5 + x_3_6 + x_3_11 + x_3_12 + x_3_15
   + x_3_16 = 0
 c_2_4: - 2 y_4 + x_2_4 + x_4_7 + x_4_9 + x_4_10 + x_4_11 + x_4_13 + x_4_14
   + x_4_16 + x_4_17 + x_4_18 = 0
 c_2_5: - 2 y_5 + x_1_5 + x_2_5 + x_3_5 + x_5_6 + x_5_9 + x_5_10 + x_5_13
   + x_5_14 + x_5_16 = 0
 c_2_6: - 2 y_6 + x_0_6 + x_3_6 + x_5_6 + x_6_7 + x_6_8 + x_6_11 + x_6_14
   + x_6_17 + x_6_18 + x_6_19 = 0
 c_2_7: - 2 y_7 + x_0_7 + x_1_7 + x_2_7 + x_4_7 + x_6_7 + x_7_9 + x_7_10
   + x_7_13 + x_7_14 + x_7_15 + x_7_16 + x_7_18 + x_7_19 = 0
 c_2_8: - 2 y_8 + x_0_8 + x_6_8 + x_8_10 + x_8_11 + x_8_12 + x_8_14 = 0
 c_2_9: - 2 y_9 + x_0_9 + x_1_9 + x_2_9 + x_4_9 + x_5_9 + x_7_9 + x_9_10
   + x_9_15 + x_9_17 + x_9_19 = 0
 c_2_10: - 2 y_10 + x_0_10 + x_1_10 + x_4_10 + x_5_10 + x_7_10 + x_8_10
   + x_9_10 + x_10_13 + x_10_14 + x_10_16 + x_10_19 = 0
 c_2_11: - 2 y_11 + x_1_11 + x_2_11 + x_3_11 + x_4_11 + x_6_11 + x_8_11
   + x_11_14 + x_11_15 + x_11_18 + x_11_19 = 0
 c_2_12: - 2 y_12 + x_0_12 + x_2_12 + x_3_12 + x_8_12 + x_12_14 + x_12_16
   + x_12_17 = 0
 c_2_13: - 2 y_13 + x_0_13 + x_4_13 + x_5_13 + x_7_13 + x_10_13 + x_13_15
   + x_13_18 + x_13_19 = 0
 c_2_14: - 2 y_14 + x_0_14 + x_2_14 + x_4_14 + x_5_14 + x_6_14 + x_7_14
   + x_8_14 + x_10_14 + x_11_14 + x_12_14 + x_14_17 = 0
 c_2_15: - 2 y_15 + x_1_15 + x_2_15 + x_3_15 + x_7_15 + x_9_15 + x_11_15
   + x_13_15 + x_15_16 + x_15_19 = 0
 c_2_16: - 2 y_16 + x_0_16 + x_3_16 + x_4_16 + x_5_16 + x_7_16 + x_10_16
   + x_12_16 + x_15_16 + x_16_18 + 862 x_16_19 = 0
 c_2_17: - 2 y_17 + x_1_17 + x_2_17 + x_4_17 + x_6_17 + x_9_17 + x_12_17
   + x_14_17 = 0
 c_2_18: - 2 y_18 + x_0_18 + x_1_18 + x_4_18 + x_6_18 + x_7_18 + x_11_18
   + x_13_18 + x_16_18 = 0
 c_2_19: - 2 y_19 + x_6_19 + x_7_19 + x_9_19 + x_10_19 + x_11_19 + x_13_19
   + x_15_19 + 862 x_16_19 = 0
Bounds
 Constant = 1
Binaries
 y_0 y_1 y_2 y_3 y_4 y_5 y_6 y_7 y_8 y_9 y_10 y_11 y_12 y_13 y_14 y_15 y_16
 y_17 y_18 y_19 x_0_1 x_0_2 x_0_3 x_0_6 x_0_7 x_0_8 x_0_9 x_0_10 x_0_12
 x_0_13 x_0_14 x_0_16 x_0_18 x_1_2 x_1_5 x_1_7 x_1_9 x_1_10 x_1_11 x_1_15
 x_1_17 x_1_18 x_2_3 x_2_4 x_2_5 x_2_7 x_2_9 x_2_11 x_2_12 x_2_14 x_2_15
 x_2_17 x_3_5 x_3_6 x_3_11 x_3_12 x_3_15 x_3_16 x_4_7 x_4_9 x_4_10 x_4_11
 x_4_13 x_4_14 x_4_16 x_4_17 x_4_18 x_5_6 x_5_9 x_5_10 x_5_13 x_5_14 x_5_16
 x_6_7 x_6_8 x_6_11 x_6_14 x_6_17 x_6_18 x_6_19 x_7_9 x_7_10 x_7_13 x_7_14
 x_7_15 x_7_16 x_7_18 x_7_19 x_8_10 x_8_11 x_8_12 x_8_14 x_9_10 x_9_15
 x_9_17 x_9_19 x_10_13 x_10_14 x_10_16 x_10_19 x_11_14 x_11_15 x_11_18
 x_11_19 x_12_14 x_12_16 x_12_17 x_13_15 x_13_18 x_13_19 x_14_17 x_15_16
 x_15_19 x_16_18 x_16_19 x_16_19 x_16_19 x_16_19 x_16_19 x_16_19 x_16_19
 x_16_19 x_16_19 x_16_19 x_16_19 x_16_19 x_16_19 x_16_19 x_16_19 x_16_19
 x_16_19 x_16_19 x_16_19 x_16_19 x_16_19 x_16_19 x_16_19 x_16_19 x_16_19
 x_16_19 x_16_19 x_16_19 x_16_19 x_16_19 x_16_19 x_16_19 x_16_19 x_16_19
 x_16_19 x_16_19 x_16_19 x_16_19 x_16_19 x_16_19 x_16_19 x_16_19 x_16_19
 x_16_19 x_16_19 x_16_19 x_16_19 x_16_19 x_16_19 x_16_19 x_16_19 x_16_19
 x_16_19 x_16_19 x_16_19 x_16_19 x_16_19 x_16_19 x_16_19 x_16_19 x_16_19
 x_16_19 x_16_19 x_16_19 x_16_19 x_16_19 x_16_19 x_16_19 x_16_19 x_16_19
 x_16_19 x_16_19 x_16_19 x_16_19 x_16_19 x_16_19 x_16_19 x_16_19 x_16_19
 x_16_19 x_16_19 x_16_19 x_16_19 x_16_19 x_16_19 x_16_19 x_16_19 x_16_19
 x_16_19 x_16_19 x_16_19 x_16_19 x_16_19 x_16_19 x_16_19 x_16_19 x_16_19
 x_16_19 x_16_19 x_16_19 x_16_19 x_16_19 x_16_19 x_16_19 x_16_19 x_16_19
 x_16_19 x_16_19 x_16_19 x_16_19 x_16_19 x_16_19 x_16_19 x_16_19 x_16_19
 x_16_19 x_16_19 x_16_19 x_16_19 x_16_19 x_16_19 x_16_19 x_16_19 x_16_19
 x_16_19 x_16_19 x_16_19 x_16_19 x_16_19 x_16_19 x_16_19 x_16_19 x_16_19
 x_16_19 x_16_19 x_16_19 x_16_19 x_16_19 x_16_19 x_16_19 x_16_19 x_16_19
 x_16_19 x_16_19 x_16_19 x_16_19 x_16_19 x_16_19 x_16_19 x_16_19 x_16_19
 x_16_19 x_16_19 x_16_19 x_16_19 x_16_19 x_16_19 x_16_19 x_16_19 x_16_19
 x_16_19 x_16_19 x_16_19 x_16_19 x_16_19 x_16_19 x_16_19 x_16_19 x_16_19
 x_16_19 x_16_19 x_16_19 x_16_19 x_16_19 x_16_19 x_16_19 x_16_19 x_16_19
 x_16_19 x_16_19 x_16_19 x_16_19 x_16_19 x_16_19 x_16_19 x_16_19 x_16_19
 x_16_19 x_16_19 x_16_19 x_16_19 x_16_19 x_16_19 x_16_19 x_16_19 x_16_19
 x_16_19 x_16_19 x_16_19 x_16_19 x_16_19 x_16_19 x_16_19 x_16_19 x_16_19
 x_16_19 x_16_19 x_16_19 x_16_19 x_16_19 x_16_19 x_16_19 x_16_19 x_16_19
 x_16_19 x_16_19 x_16_19 x_16_19 x_16_19 x_16_19 x_16_19 x_16_19 x_16_19
 x_16_19 x_16_19 x_16_19 x_16_19 x_16_19 x_16_19 x_16_19 x_16_19 x_16_19
 x_16_19 x_16_19 x_16_19 x_16_19 x_16_19 x_16_19 x_16_19 x_16_19 x_16_19
 x_16_19 x_16_19 x_16_19 x_16_19 x_16_19 x_16_19 x_16_19 x_16_19 x_16_19
 x_16_19 x_16_19 x_16_19 x_16_19 x_16_19 x_16_19 x_16_19 x_16_19 x_16_19
 x_16_19 x_16_19 x_16_19 x_16_19 x_16_19 x_16_19 x_16_19 x_16_19 x_16_19
 x_16_19 x_16_19 x_16_19 x_16_19 x_16_19 x_16_19 x_16_19 x_16_19 x_16_19
 x_16_19 x_16_19 x_16_19 x_16_19 x_16_19 x_16_19 x_16_19 x_16_19 x_16_19
 x_16_19 x_16_19 x_16_19 x_16_19 x_16_19 x_16_19 x_16_19 x_16_19 x_16_19
 x_16_19 x_16_19 x_16_19 x_16_19 x_16_19 x_16_19 x_16_19 x_16_19 x_16_19
 x_16_19 x_16_19 x_16_19 x_16_19 x_16_19 x_16_19 x_16_19 x_16_19 x_16_19
 x_16_19 x_16_19 x_16_19 x_16_19 x_16_19 x_16_19 x_16_19 x_16_19 x_16_19
 x_16_19 x_16_19 x_16_19 x_16_19 x_16_19 x_16_19 x_16_19 x_16_19 x_16_19
 x_16_19 x_16_19 x_16_19 x_16_19 x_16_19 x_16_19 x_16_19 x_16_19 x_16_19
 x_16_19 x_16_19 x_16_19 x_16_19 x_16_19 x_16_19 x_16_19 x_16_19 x_16_19
 x_16_19 x_16_19 x_16_19 x_16_19 x_16_19 x_16_19 x_16_19 x_16_19 x_16_19
 x_16_19 x_16_19 x_16_19 x_16_19 x_16_19 x_16_19 x_16_19 x_16_19 x_16_19
 x_16_19 x_16_19 x_16_19 x_16_19 x_16_19 x_16_19 x_16_19 x_16_19 x_16_19
 x_16_19 x_16_19 x_16_19 x_16_19 x_16_19 x_16_19 x_16_19 x_16_19 x_16_19
 x_16_19 x_16_19 x_16_19 x_16_19 x_16_19 x_16_19 x_16_19 x_16_19 x_16_19
 x_16_19 x_16_19 x_16_19 x_16_19 x_16_19 x_16_19 x_16_19 x_16_19 x_16_19
 x_16_19 x_16_19 x_16_19 x_16_19 x_16_19 x_16_19 x_16_19 x_16_19 x_16_19
 x_16_19 x_16_19 x_16_19 x_16_19 x_16_19 x_16_19 x_16_19 x_16_19 x_16_19
 x_16_19 x_16_19 x_16_19 x_16_19 x_16_19 x_16_19 x_16_19 x_16_19 x_16_19
 x_16_19 x_16_19 x_16_19 x_16_19 x_16_19 x_16_19 x_16_19 x_16_19 x_16_19
 x_16_19 x_16_19 x_16_19 x_16_19 x_16_19 x_16_19 x_16_19 x_16_19 x_16_19
 x_16_19 x_16_19 x_16_19 x_16_19 x_16_19 x_16_19 x_16_19 x_16_19 x_16_19
 x_16_19 x_16_19 x_16_19 x_16_19 x_16_19 x_16_19 x_16_19 x_16_19 x_16_19
 x_16_19 x_16_19 x_16_19 x_16_19 x_16_19 x_16_19 x_16_19 x_16_19 x_16_19
 x_16_19 x_16_19 x_16_19 x_16_19 x_16_19 x_16_19 x_16_19 x_16_19 x_16_19
 x_16_19 x_16_19 x_16_19 x_16_19 x_16_19 x_16_19 x_16_19 x_16_19 x_16_19
 x_16_19 x_16_19 x_16_19 x_16_19 x_16_19 x_16_19 x_16_19 x_16_19 x_16_19
 x_16_19 x_16_19 x_16_19 x_16_19 x_16_19 x_16_19 x_16_19 x_16_19 x_16_19
 x_16_19 x_16_19 x_16_19 x_16_19 x_16_19 x_16_19 x_16_19 x_16_19 x_16_19
 x_16_19 x_16_19 x_16_19 x_16_19 x_16_19 x_16_19 x_16_19 x_16_19 x_16_19
 x_16_19 x_16_19 x_16_19 x_16_19 x_16_19 x_16_19 x_16_19 x_16_19 x_16_19
 x_16_19 x_16_19 x_16_19 x_16_19 x_16_19 x_16_19 x_16_19 x_16_19 x_16_19
 x_16_19 x_16_19 x_16_19 x_16_19 x_16_19 x_16_19 x_16_19 x_16_19 x_16_19
 x_16_19 x_16_19 x_16_19 x_16_19 x_16_19 x_16_19 x_16_19 x_16_19 x_16_19
 x_16_19 x_16_19 x_16_19 x_16_19 x_16_19 x_16_19 x_16_19 x_16_19 x_16_19
 x_16_19 x_16_19 x_16_19 x_16_19 x_16_19 x_16_19 x_16_19 x_16_19 x_16_19
 x_16_19 x_16_19 x_16_19 x_16_19 x_16_19 x_16_19 x_16_19 x_16_19 x_16_19
 x_16_19 x_16_19 x_16_19 x_16_19 x_16_19 x_16_19 x_16_19 x_16_19 x_16_19
 x_16_19 x_16_19 x_16_19 x_16_19 x_16_19 x_16_19 x_16_19 x_16_19 x_16_19
 x_16_19 x_16_19 x_16_19 x_16_19 x_16_19 x_16_19 x_16_19 x_16_19 x_16_19
 x_16_19 x_16_19 x_16_19 x_16_19 x_16_19 x_16_19 x_16_19 x_16_19 x_16_19
 x_16_19 x_16_19 x_16_19 x_16_19 x_16_19 x_16_19 x_16_19 x_16_19 x_16_19
 x_16_19 x_16_19 x_16_19 x_16_19 x_16_19 x_16_19 x_16_19 x_16_19 x_16_19
 x_16_19 x_16_19 x_16_19 x_16_19 x_16_19 x_16_19 x_16_19 x_16_19 x_16_19
 x_16_19 x_16_19 x_16_19 x_16_19 x_16_19 x_16_19 x_16_19 x_16_19 x_16_19
 x_16_19 x_16_19 x_16_19 x_16_19 x_16_19 x_16_19 x_16_19 x_16_19 x_16_19
 x_16_19 x_16_19 x_16_19 x_16_19 x_16_19 x_16_19 x_16_19 x_16_19 x_16_19
 x_16_19 x_16_19 x_16_19 x_16_19 x_16_19 x_16_19 x_16_19 x_16_19 x_16_19
 x_16_19 x_16_19 x_16_19 x_16_19 x_16_19 x_16_19 x_16_19 x_16_19 x_16_19
 x_16_19 x_16_19 x_16_19 x_16_19 x_16_19 x_16_19 x_16_19 x_16_19 x_16_19
 x_16_19 x_16_19 x_16_19 x_16_19 x_16_19 x_16_19 x_16_19 x_16_19 x_16_19
 x_16_19 x_16_19 x_16_19 x_16_19 x_16_19 x_16_19 x_16_19 x_16_19 x_16_19
 x_16_19 x_16_19 x_16_19 x_16_19 x_16_19 x_16_19 x_16_19 x_16_19 x_16_19
 x_16_19 x_16_19 x_16_19 x_16_19 x_16_19 x_16_19 x_16_19 x_16_19 x_16_19
 x_16_19 x_16_19 x_16_19 x_16_19 x_16_19 x_16_19 x_16_19 x_16_19 x_16_19
 x_16_19 x_16_19 x_16_19 x_16_19 x_16_19 x_16_19 x_16_19 x_16_19 x_16_19
 x_16_19 x_16_19 x_16_19 x_16_19 x_16_19 x_16_19 x_16_19 x_16_19 x_16_19
 x_16_19 x_16_19 x_16_19 x_16_19 x_16_19 x_16_19 x_16_19 x_16_19 x_16_19
 x_16_19 x_16_19 x_16_19 x_16_19 x_16_19 x_16_19 x_16_19 x_16_19 x_16_19
 x_16_19 x_16_19 x_16_19 x_16_19 x_16_19 x_16_19 x_16_19 x_16_19 x_16_19
 x_16_19 x_16_19 x_16_19 x_16_19 x_16_19 x_16_19 x_16_19 x_16_19 x_16_19
 x_16_19 x_16_19 x_16_19 x_16_19 x_16_19 x_16_19 x_16_19 x_16_19 x_16_19
 x_16_19 x_16_19 x_16_19 x_16_19 x_16_19 x_16_19 x_16_19 x_16_19 x_16_19
 x_16_19 x_16_19 x_16_19 x_16_19 x_16_19 x_16_19 x_16_19 x_16_19 x_16_19
 x_16_19 x_16_19 x_16_19 x_16_19 x_16_19 x_16_19 x_16_19 x_16_19 x_16_19
 x_16_19 x_16_19 x_16_19 x_16_19 x_16_19 x_16_19 x_16_19 x_16_19 x_16_19
 x_16_19 x_16_19 x_16_19 x_16_19 x_16_19 x_16_19 x_16_19 x_16_19 x_16_19
End
